
Gurobi 9.5.0 (linux64) logging started Tue Nov  7 13:09:41 2023

Set parameter LogFile to value "/lustre1/scratch/348/vsc34888/JointResearch/05.Models/06.Benchmarking/D.Representative_days_based_on_RES_and_Demand/3-bus_ByStages_nc100/openStarNet_3-bus_ByStages_nc100.log"
Set parameter Method to value 2
Set parameter MIPFocus to value 1
Set parameter Presolve to value 2
Set parameter RINS to value 100
Set parameter MIPGap to value 0.01
Set parameter Threads to value 36
Set parameter TimeLimit to value 604800
Set parameter IterationLimit to value 760000000
Gurobi Optimizer version 9.5.0 build v9.5.0rc5 (linux64)
Thread count: 36 physical cores, 36 logical processors, using up to 36 threads
Optimize a model with 7026 rows, 3095 columns and 19201 nonzeros
Model fingerprint: 0x61541ce0
Variable types: 3086 continuous, 9 integer (9 binary)
Coefficient statistics:
  Matrix range     [1e-03, 2e+05]
  Objective range  [1e+00, 1e+00]
  Bounds range     [6e-06, 2e+00]
  RHS range        [6e-06, 1e+00]
Presolve removed 2826 rows and 845 columns
Presolve time: 0.02s
Presolved: 4200 rows, 2250 columns, 14841 nonzeros
Variable types: 2241 continuous, 9 integer (9 binary)
Found heuristic solution: objective 52.4424095
Root relaxation presolved: 4200 rows, 2250 columns, 14841 nonzeros

Root barrier log...

Ordering time: 0.00s

Barrier statistics:
 Dense cols : 9
 AA' NZ     : 3.720e+04
 Factor NZ  : 8.574e+04 (roughly 3 MB of memory)
 Factor Ops : 1.922e+06 (less than 1 second per iteration)
 Threads    : 36

                  Objective                Residual
Iter       Primal          Dual         Primal    Dual     Compl     Time
   0   3.70822803e+05 -2.33489616e+08  1.54e+01 1.07e+02  4.41e+04     0s
   1   2.44450510e+04 -4.66111885e+06  1.03e+00 4.12e-09  1.44e+03     0s
   2   2.39204499e+03 -1.84860373e+06  3.94e-02 1.52e-08  2.47e+02     0s
   3   1.63527596e+03 -2.28142844e+04  4.72e-04 2.23e-10  3.02e+00     0s
   4   3.89607492e+02 -3.06455986e+03  2.56e-05 2.50e-11  4.27e-01     0s
   5   1.89289788e+02 -1.55636027e+03  7.67e-06 1.24e-11  2.16e-01     0s
   6   1.04031154e+02 -5.62093610e+02  2.19e-06 4.50e-12  8.22e-02     0s
   7   7.12344071e+01 -1.53620595e+02  7.04e-07 1.43e-12  2.78e-02     0s
   8   5.34372009e+01 -9.04718004e+00  5.93e-08 1.82e-12  7.71e-03     0s
   9   4.49682746e+01  3.37009319e+01  2.93e-09 1.82e-12  1.39e-03     0s
  10   4.27653095e+01  3.81470952e+01  1.19e-09 1.82e-12  5.70e-04     0s
  11   4.24175053e+01  3.93951520e+01  8.24e-10 1.82e-12  3.73e-04     0s
  12   4.21156972e+01  3.96386967e+01  4.49e-10 1.82e-12  3.06e-04     0s
  13   4.20415180e+01  4.04751058e+01  3.05e-10 1.82e-12  1.93e-04     0s
  14   4.18644410e+01  4.06515756e+01  1.74e-10 1.82e-12  1.50e-04     0s
  15   4.18229439e+01  4.09215777e+01  1.25e-10 4.55e-13  1.11e-04     0s
  16   4.17682274e+01  4.10673788e+01  6.08e-11 1.82e-12  8.65e-05     0s
  17   4.17274414e+01  4.11711340e+01  2.74e-11 1.82e-12  6.87e-05     0s
  18   4.16815718e+01  4.13495429e+01  8.11e-12 1.82e-12  4.10e-05     0s
  19   4.16727880e+01  4.14180322e+01  5.85e-12 4.55e-13  3.15e-05     0s
  20   4.16694501e+01  4.14228911e+01  5.11e-12 9.09e-13  3.04e-05     0s
  21   4.16663177e+01  4.14585299e+01  3.35e-12 1.82e-12  2.57e-05     0s
  22   4.16632120e+01  4.14721720e+01  2.73e-12 3.64e-12  2.36e-05     0s
  23   4.16607180e+01  4.15699776e+01  1.76e-12 4.55e-13  1.12e-05     0s
  24   4.16556427e+01  4.15812625e+01  1.83e-09 4.55e-13  9.18e-06     0s
  25   4.16538527e+01  4.16056921e+01  9.28e-10 4.55e-13  5.95e-06     0s
  26   4.16533028e+01  4.16492909e+01  2.54e-10 3.64e-12  4.95e-07     0s
  27   4.16528248e+01  4.16527068e+01  4.79e-11 4.55e-13  1.46e-08     0s
  28   4.16527162e+01  4.16527151e+01  2.86e-10 9.09e-13  1.40e-10     0s
  29   4.16527152e+01  4.16527152e+01  4.73e-12 1.82e-12  1.40e-13     0s

Barrier solved model in 29 iterations and 0.23 seconds (0.09 work units)
Optimal objective 4.16527152e+01


Root relaxation: objective 4.165272e+01, 405 iterations, 0.17 seconds (0.07 work units)

    Nodes    |    Current Node    |     Objective Bounds      |     Work
 Expl Unexpl |  Obj  Depth IntInf | Incumbent    BestBd   Gap | It/Node Time

     0     0   41.65272    0    3   52.44241   41.65272  20.6%     -    0s
H    0     0                      41.7164428   41.65272  0.15%     -    0s
     0     0   41.65272    0    3   41.71644   41.65272  0.15%     -    0s

Cutting planes:
  Gomory: 1
  MIR: 93

Explored 1 nodes (767 simplex iterations) in 0.30 seconds (0.14 work units)
Thread count was 36 (of 36 available processors)

Solution count 2: 41.7164 52.4424 

Optimal solution found (tolerance 1.00e-02)
Best objective 4.171644277457e+01, best bound 4.165271520464e+01, gap 0.1528%

Gurobi 9.5.0 (linux64) logging started Tue Nov  7 13:09:42 2023

Set parameter LogFile to value "/lustre1/scratch/348/vsc34888/JointResearch/05.Models/06.Benchmarking/D.Representative_days_based_on_RES_and_Demand/3-bus_ByStages_nc100/openStarNet_3-bus_ByStages_nc100.log"
Set parameter Method to value 2
Set parameter MIPFocus to value 1
Set parameter Presolve to value 2
Set parameter RINS to value 100
Set parameter MIPGap to value 0.01
Set parameter Threads to value 36
Set parameter TimeLimit to value 604800
Set parameter IterationLimit to value 760000000
No parameters matching 'relax_integrality' found
Gurobi Optimizer version 9.5.0 build v9.5.0rc5 (linux64)
Thread count: 36 physical cores, 36 logical processors, using up to 36 threads
Optimize a model with 7026 rows, 3086 columns and 15592 nonzeros
Model fingerprint: 0xfe27c8bf
Coefficient statistics:
  Matrix range     [1e-03, 2e+05]
  Objective range  [1e+00, 1e+00]
  Bounds range     [6e-06, 2e+00]
  RHS range        [6e-06, 1e+00]
Presolve removed 6326 rows and 1846 columns
Presolve time: 0.01s
Presolved: 700 rows, 1240 columns, 2540 nonzeros

Ordering time: 0.00s

Barrier statistics:
 AA' NZ     : 1.700e+03
 Factor NZ  : 2.800e+03 (roughly 1 MB of memory)
 Factor Ops : 1.400e+04 (less than 1 second per iteration)
 Threads    : 1

                  Objective                Residual
Iter       Primal          Dual         Primal    Dual     Compl     Time
   0   4.58995049e+05 -1.63866320e+08  4.00e+01 3.47e+02  9.94e+04     0s
   1   2.30444368e+04 -2.81941330e+06  2.48e+00 6.23e-12  2.64e+03     0s
   2   2.17967302e+03 -3.35001529e+05  1.05e-02 5.46e-12  1.41e+02     0s
   3   1.33747346e+03 -6.13732968e+03  1.67e-04 3.07e-12  3.02e+00     0s
   4   2.66733257e+02 -2.23769610e+03  9.77e-06 7.09e-12  1.01e+00     0s
   5   1.29393469e+02 -4.39361930e+02  1.22e-06 3.45e-12  2.29e-01     0s
   6   7.25321435e+01 -8.30156584e+01  2.95e-07 9.09e-13  6.27e-02     0s
   7   5.21590996e+01  1.25126716e+01  9.34e-08 1.03e-12  1.60e-02     0s
   8   4.32302005e+01  3.85842374e+01  1.03e-08 9.09e-13  1.87e-03     0s
   9   4.18415161e+01  4.15248398e+01  1.74e-09 4.55e-13  1.28e-04     0s
  10   4.17209681e+01  4.17096459e+01  4.58e-09 4.55e-13  4.57e-06     0s
  11   4.17165502e+01  4.17158392e+01  1.11e-08 4.55e-13  2.87e-07     0s
  12   4.17164428e+01  4.17164424e+01  1.08e-10 4.55e-13  1.40e-10     0s

Barrier solved model in 12 iterations and 0.01 seconds (0.01 work units)
Optimal objective 4.17164428e+01

Crossover log...

      23 DPushes remaining with DInf 0.0000000e+00                 0s
       0 DPushes remaining with DInf 0.0000000e+00                 0s

     100 PPushes remaining with PInf 0.0000000e+00                 0s
       0 PPushes remaining with PInf 0.0000000e+00                 0s

  Push phase complete: Pinf 0.0000000e+00, Dinf 6.0132455e-14      0s

Iteration    Objective       Primal Inf.    Dual Inf.      Time
     126    4.1716443e+01   0.000000e+00   0.000000e+00      0s

Solved in 126 iterations and 0.01 seconds (0.01 work units)
Optimal objective  4.171644277e+01
